COMUNI = {
	bastia_umbra,
	spoleto,
	terni,
};

NUMERO_COMUNI = 3;

ABITANTI_PER_COMUNE = [21, 36, 106];

STRADE_TRA_COMUNI = [|
	false, false, false |
	false, false, true |
	false, true, false |
|];

RICHIESTE = [|
	13, 24, 121, 6, 140 |
	86, 37, 116, 51, 46 |
	64, 34, 89, 93, 72 |
|];
